(set-info :source |
 Generated by Alive 0.1
 More info in N. P. Lopes, D. Menendez, S. Nagarakatte, J. Regehr.
 Provably Correct Peephole Optimizations with Alive. In PLDI'15.
|)

(set-info :status unknown)
(declare-fun C () (_ BitVec 30))
(declare-fun C2 () (_ BitVec 30))
(declare-fun %X () (_ BitVec 30))
(assert
 (let (($x452872 (bvsge ((_ zero_extend 2) (bvadd C C2)) (_ bv30 32))))
 (let (($x61482 (bvult C (_ bv30 30))))
 (let (($x347329 (bvult C2 (_ bv30 30))))
 (and $x347329 $x61482 $x452872 (and (distinct (bvshl (bvshl %X C2) C) (_ bv0 30)) true))))))
(check-sat)
